Mg6 Cr1 C1                              
    1.000000000000000     
     3.0844888133734178   -5.2093407359614012    0.0000000000000000
     3.0844888133734178    5.2093407359614012    0.0000000000000000
     0.0000000000000000    0.0000000000000000    4.6391402616803088
   Mg   Cr   C 
     6     1     1
Direct
  0.6620776844772668  0.8364977791985393  0.0000000000000000
  0.1635022208014607  0.3379223155227333  0.0000000000000000
  0.8483850172815582  0.6698231125008380  0.5000000000000000
  0.3301768874991620  0.1516149827184418  0.5000000000000000
  0.8286070074112294  0.1713929925887706  0.5000000000000000
  0.3225533509827501  0.6774466490172499  0.5000000000000000
  0.6655706593471331  0.3344293406528669  0.0000000000000000
  0.1791311721994367  0.8208688278005634  0.0000000000000000
 
  0.00000000E+00  0.00000000E+00  0.00000000E+00
  0.00000000E+00  0.00000000E+00  0.00000000E+00
  0.00000000E+00  0.00000000E+00  0.00000000E+00
  0.00000000E+00  0.00000000E+00  0.00000000E+00
  0.00000000E+00  0.00000000E+00  0.00000000E+00
  0.00000000E+00  0.00000000E+00  0.00000000E+00
  0.00000000E+00  0.00000000E+00  0.00000000E+00
  0.00000000E+00  0.00000000E+00  0.00000000E+00
