Mg6 Cr1 C1
1.0
   3.0870839999999999   -5.2356860000000003    0.0000000000000000
   3.0870839999999999    5.2356860000000003    0.0000000000000000
   0.0000000000000000    0.0000000000000000    4.6305209999999999
Mg Cr C
6 1 1
direct
   0.6639619999999999    0.8358510000000000    0.0000000000000000 Mg
   0.1641490000000000    0.3360380000000000    0.0000000000000000 Mg
   0.8490430000000000    0.6695810000000000    0.5000000000000000 Mg
   0.3304190000000000    0.1509570000000000    0.5000000000000000 Mg
   0.8288749999999999    0.1711250000000000    0.5000000000000000 Mg
   0.3230490000000000    0.6769510000000000    0.5000000000000000 Mg
   0.6664450000000000    0.3335550000000000    0.0000000000000000 Cr
   0.1740620000000000    0.8259379999999999    0.0000000000000000 C
