Cr1 Cu4 Ni1 Sn2                         
    1.000000000000000     
     7.1779100952423383   -2.1754131236250189    0.0004001688720599
     7.1779100952423383    2.1754131236250189    0.0004001688720599
     6.5183998608464275   -0.0000000000000000    3.7101596946041320
   Cr   Cu   Ni   Sn
     1     4     1     2
Direct
  0.0000000000000000  0.0000000000000000  0.0000000000000000
  0.3766227090093800  0.3766227090093800  0.3766227090092542
  0.8737730810800239  0.8737730810800239  0.8737730810800939
  0.6233772909906200  0.6233772909906200  0.6233772909907458
  0.1262269189199761  0.1262269189199761  0.1262269189199062
  0.5000000000000000  0.5000000000000000  0.5000000000000000
  0.7503425466082572  0.7503425466082572  0.7503425466083051
  0.2496574533917428  0.2496574533917428  0.2496574533916948
 
  0.00000000E+00  0.00000000E+00  0.00000000E+00
  0.00000000E+00  0.00000000E+00  0.00000000E+00
  0.00000000E+00  0.00000000E+00  0.00000000E+00
  0.00000000E+00  0.00000000E+00  0.00000000E+00
  0.00000000E+00  0.00000000E+00  0.00000000E+00
  0.00000000E+00  0.00000000E+00  0.00000000E+00
  0.00000000E+00  0.00000000E+00  0.00000000E+00
  0.00000000E+00  0.00000000E+00  0.00000000E+00
