Cr1 Cu4 Ni1 Sn2
1.0
   7.1945230000000002   -2.1811319999999998    0.0000000000000000
   7.1945230000000002    2.1811319999999998    0.0000000000000000
   6.5332790000000003    0.0000000000000000    3.7195119999999999
Cr Cu Ni Sn
1 4 1 2
direct
   0.0000000000000000    0.0000000000000000    0.0000000000000000 Cr
   0.3763620000000000    0.3763620000000000    0.3763620000000000 Cu
   0.8739180000000000    0.8739180000000000    0.8739180000000000 Cu
   0.6236380000000000    0.6236380000000000    0.6236380000000000 Cu
   0.1260820000000000    0.1260820000000000    0.1260820000000000 Cu
   0.5000000000000000    0.5000000000000000    0.5000000000000000 Ni
   0.7504419999999999    0.7504419999999999    0.7504419999999999 Sn
   0.2495580000000000    0.2495580000000000    0.2495580000000000 Sn
